rcpsp/heur_output_bi_constraints/Log=10/heurj120.txt
encoding rcpsp/j120.sm/j12046_4.sm nv: 1340409 nc: 2993401 enctime: 46.97
encoding rcpsp/j120.sm/j12046_4.sm nv: 475629 nc: 1058881 enctime: 8.10
c File: j12046_4.smnaivebi10.wcnf
c timeout
c final solution cost: 186
c CPU time: 68.247161
s UNKNOWN

c File: j12046_4.smbi10.wcnf
c timeout
c final solution cost: 186
c CPU time: 61.353459
s UNKNOWN


rcpsp/heur_output_bi_constraints/Log=10/heurj120.txt
encoding rcpsp/j120.sm/j12046_5.sm nv: 1405488 nc: 3133543 enctime: 47.52
encoding rcpsp/j120.sm/j12046_5.sm nv: 414384 nc: 920263 enctime: 6.72
c File: j12046_5.smnaivebi10.wcnf
c timeout
c final solution cost: 170
c CPU time: 67.754752
s UNKNOWN

c File: j12046_5.smbi10.wcnf
c timeout
c final solution cost: 171
c CPU time: 61.060605
s UNKNOWN


rcpsp/heur_output_bi_constraints/Log=10/heurj120.txt
encoding rcpsp/j120.sm/j12046_6.sm nv: 1184400 nc: 2628260 enctime: 38.80
encoding rcpsp/j120.sm/j12046_6.sm nv: 459942 nc: 1017864 enctime: 8.98
c File: j12046_6.smnaivebi10.wcnf
c timeout
c final solution cost: 185
c CPU time: 66.810513
s UNKNOWN

c File: j12046_6.smbi10.wcnf
c timeout
c final solution cost: 191
c CPU time: 61.347323
s UNKNOWN


rcpsp/heur_output_bi_constraints/Log=10/heurj120.txt
encoding rcpsp/j120.sm/j12046_7.sm nv: 1327656 nc: 2961182 enctime: 45.63
encoding rcpsp/j120.sm/j12046_7.sm nv: 469436 nc: 1043882 enctime: 7.94
c File: j12046_7.smnaivebi10.wcnf
c timeout
c final solution cost: 251
c CPU time: 67.609793
s UNKNOWN

c File: j12046_7.smbi10.wcnf
c timeout
c final solution cost: 186
c CPU time: 61.313743
s UNKNOWN


rcpsp/heur_output_bi_constraints/Log=10/heurj120.txt
encoding rcpsp/j120.sm/j12046_8.sm nv: 1295160 nc: 2898113 enctime: 45.01
encoding rcpsp/j120.sm/j12046_8.sm nv: 443768 nc: 989689 enctime: 7.55
c File: j12046_8.smnaivebi10.wcnf
c timeout
c final solution cost: 190
c CPU time: 67.505576
s UNKNOWN

c File: j12046_8.smbi10.wcnf
c timeout
c final solution cost: 187
c CPU time: 61.259377
s UNKNOWN


rcpsp/heur_output_bi_constraints/Log=10/heurj120.txt
encoding rcpsp/j120.sm/j12046_9.sm nv: 1415400 nc: 3171193 enctime: 49.40
encoding rcpsp/j120.sm/j12046_9.sm nv: 474600 nc: 1059769 enctime: 9.54
c File: j12046_9.smnaivebi10.wcnf
c timeout
c final solution cost: 181
c CPU time: 68.240985
s UNKNOWN

c File: j12046_9.smbi10.wcnf
c timeout
c final solution cost: 182
c CPU time: 61.317535
s UNKNOWN


rcpsp/heur_output_bi_constraints/Log=10/heurj120.txt
encoding rcpsp/j120.sm/j1204_6.sm nv: 937764 nc: 2169385 enctime: 35.85
encoding rcpsp/j120.sm/j1204_6.sm nv: 124761 nc: 284238 enctime: 2.37
c File: j1204_6.smnaivebi10.wcnf
c optimal
c final solution cost: 90
c CPU time: 9.877324
s OPTIMUM FOUND

c File: j1204_6.smbi10.wcnf
c optimal
c final solution cost: 90
c CPU time: 0.360877
s OPTIMUM FOUND


rcpsp/heur_output_bi_constraints/Log=10/heurj120.txt
encoding rcpsp/j120.sm/j12047_10.sm nv: 1963080 nc: 4263974 enctime: 58.11
encoding rcpsp/j120.sm/j12047_10.sm nv: 490770 nc: 1061828 enctime: 8.99
c File: j12047_10.smnaivebi10.wcnf
c timeout
c final solution cost: 142
c CPU time: 69.183394
s UNKNOWN

c File: j12047_10.smbi10.wcnf
c timeout
c final solution cost: 139
c CPU time: 61.048194
s UNKNOWN


rcpsp/heur_output_bi_constraints/Log=10/heurj120.txt
encoding rcpsp/j120.sm/j12047_1.sm nv: 1621710 nc: 3568602 enctime: 51.70
encoding rcpsp/j120.sm/j12047_1.sm nv: 413950 nc: 907066 enctime: 7.96
c File: j12047_1.smnaivebi10.wcnf
c timeout
c final solution cost: 173
c CPU time: 68.508288
s UNKNOWN

c File: j12047_1.smbi10.wcnf
c timeout
c final solution cost: 146
c CPU time: 60.956494
s UNKNOWN


rcpsp/heur_output_bi_constraints/Log=10/heurj120.txt
encoding rcpsp/j120.sm/j12047_2.sm nv: 1737386 nc: 3768211 enctime: 51.78
encoding rcpsp/j120.sm/j12047_2.sm nv: 448532 nc: 969175 enctime: 6.81
c File: j12047_2.smnaivebi10.wcnf
c timeout
c final solution cost: 199
c CPU time: 67.925303
s UNKNOWN

c File: j12047_2.smbi10.wcnf
c timeout
c final solution cost: 138
c CPU time: 60.965196
s UNKNOWN


rcpsp/heur_output_bi_constraints/Log=10/heurj120.txt
encoding rcpsp/j120.sm/j12047_3.sm nv: 2084418 nc: 4524691 enctime: 62.95
encoding rcpsp/j120.sm/j12047_3.sm nv: 474138 nc: 1024951 enctime: 7.18
c File: j12047_3.smnaivebi10.wcnf
c timeout
c final solution cost: 129
c CPU time: 69.709185
s UNKNOWN

c File: j12047_3.smbi10.wcnf
c timeout
c final solution cost: 126
c CPU time: 60.968738
s UNKNOWN


rcpsp/heur_output_bi_constraints/Log=10/heurj120.txt
encoding rcpsp/j120.sm/j12047_4.sm nv: 1708686 nc: 3707610 enctime: 50.91
encoding rcpsp/j120.sm/j12047_4.sm nv: 411796 nc: 889760 enctime: 6.15
c File: j12047_4.smnaivebi10.wcnf
c timeout
c final solution cost: 169
c CPU time: 68.468614
s UNKNOWN

c File: j12047_4.smbi10.wcnf
c timeout
c final solution cost: 142
c CPU time: 60.882496
s UNKNOWN


rcpsp/heur_output_bi_constraints/Log=10/heurj120.txt
encoding rcpsp/j120.sm/j12047_5.sm nv: 1702197 nc: 3716919 enctime: 51.81
encoding rcpsp/j120.sm/j12047_5.sm nv: 441693 nc: 960695 enctime: 8.20
c File: j12047_5.smnaivebi10.wcnf
c timeout
c final solution cost: 138
c CPU time: 68.516103
s UNKNOWN

c File: j12047_5.smbi10.wcnf
c timeout
c final solution cost: 140
c CPU time: 60.992354
s UNKNOWN


rcpsp/heur_output_bi_constraints/Log=10/heurj120.txt
encoding rcpsp/j120.sm/j12047_6.sm nv: 1778394 nc: 3893714 enctime: 56.20
encoding rcpsp/j120.sm/j12047_6.sm nv: 440664 nc: 960704 enctime: 6.84
c File: j12047_6.smnaivebi10.wcnf
c timeout
c final solution cost: 153
c CPU time: 68.941224
s UNKNOWN

c File: j12047_6.smbi10.wcnf
c timeout
c final solution cost: 146
c CPU time: 60.983145
s UNKNOWN


rcpsp/heur_output_bi_constraints/Log=10/heurj120.txt
encoding rcpsp/j120.sm/j12047_7.sm nv: 1937552 nc: 4190045 enctime: 56.29
encoding rcpsp/j120.sm/j12047_7.sm nv: 434782 nc: 936275 enctime: 6.55
c File: j12047_7.smnaivebi10.wcnf
c timeout
c final solution cost: 127
c CPU time: 68.894220
s UNKNOWN

c File: j12047_7.smbi10.wcnf
c timeout
c final solution cost: 127
c CPU time: 60.899356
s UNKNOWN


rcpsp/heur_output_bi_constraints/Log=10/heurj120.txt
encoding rcpsp/j120.sm/j12047_8.sm nv: 1645248 nc: 3600982 enctime: 50.96
encoding rcpsp/j120.sm/j12047_8.sm nv: 458964 nc: 1000901 enctime: 7.19
c File: j12047_8.smnaivebi10.wcnf
c timeout
c final solution cost: 157
c CPU time: 68.702396
s UNKNOWN

c File: j12047_8.smbi10.wcnf
c timeout
c final solution cost: 150
c CPU time: 61.065960
s UNKNOWN


rcpsp/heur_output_bi_constraints/Log=10/heurj120.txt
encoding rcpsp/j120.sm/j12047_9.sm nv: 1740069 nc: 3805495 enctime: 54.48
encoding rcpsp/j120.sm/j12047_9.sm nv: 507195 nc: 1105591 enctime: 7.88
c File: j12047_9.smnaivebi10.wcnf
c timeout
c final solution cost: 151
c CPU time: 68.945692
s UNKNOWN

c File: j12047_9.smbi10.wcnf
c timeout
c final solution cost: 155
c CPU time: 61.192142
s UNKNOWN


rcpsp/heur_output_bi_constraints/Log=10/heurj120.txt
encoding rcpsp/j120.sm/j1204_7.sm nv: 976800 nc: 2218210 enctime: 35.76
encoding rcpsp/j120.sm/j1204_7.sm nv: 137640 nc: 308554 enctime: 1.54
c File: j1204_7.smnaivebi10.wcnf
c optimal
c final solution cost: 81
c CPU time: 10.942840
s OPTIMUM FOUND

c File: j1204_7.smbi10.wcnf
c optimal
c final solution cost: 81
c CPU time: 0.517285
s OPTIMUM FOUND


rcpsp/heur_output_bi_constraints/Log=10/heurj120.txt
encoding rcpsp/j120.sm/j12048_10.sm nv: 1730736 nc: 3718282 enctime: 49.36
encoding rcpsp/j120.sm/j12048_10.sm nv: 412888 nc: 883604 enctime: 6.13
c File: j12048_10.smnaivebi10.wcnf
c optimal
c final solution cost: 108
c CPU time: 36.022270
s OPTIMUM FOUND

c File: j12048_10.smbi10.wcnf
c optimal
c final solution cost: 108
c CPU time: 27.492074
s OPTIMUM FOUND


rcpsp/heur_output_bi_constraints/Log=10/heurj120.txt
encoding rcpsp/j120.sm/j12048_1.sm nv: 2103680 nc: 4491112 enctime: 57.27
encoding rcpsp/j120.sm/j12048_1.sm nv: 391153 nc: 831087 enctime: 5.77
c File: j12048_1.smnaivebi10.wcnf
c timeout
c final solution cost: 99
c CPU time: 68.582710
s UNKNOWN

c File: j12048_1.smbi10.wcnf
c timeout
c final solution cost: 98
c CPU time: 60.726780
s UNKNOWN


rcpsp/heur_output_bi_constraints/Log=10/heurj120.txt
encoding rcpsp/j120.sm/j12048_2.sm nv: 1947824 nc: 4172228 enctime: 55.00
encoding rcpsp/j120.sm/j12048_2.sm nv: 406824 nc: 867728 enctime: 6.04
c File: j12048_2.smnaivebi10.wcnf
c timeout
c final solution cost: 118
c CPU time: 68.040191
s UNKNOWN

c File: j12048_2.smbi10.wcnf
c timeout
c final solution cost: 116
c CPU time: 60.795270
s UNKNOWN


rcpsp/heur_output_bi_constraints/Log=10/heurj120.txt
encoding rcpsp/j120.sm/j12048_3.sm nv: 2252316 nc: 4828608 enctime: 64.25
encoding rcpsp/j120.sm/j12048_3.sm nv: 458436 nc: 978408 enctime: 6.94
c File: j12048_3.smnaivebi10.wcnf
c timeout
c final solution cost: 119
c CPU time: 69.475757
s UNKNOWN

c File: j12048_3.smbi10.wcnf
c timeout
c final solution cost: 117
c CPU time: 60.876372
s UNKNOWN


rcpsp/heur_output_bi_constraints/Log=10/heurj120.txt
encoding rcpsp/j120.sm/j12048_4.sm nv: 2224416 nc: 4794789 enctime: 64.23
encoding rcpsp/j120.sm/j12048_4.sm nv: 498576 nc: 1070409 enctime: 7.39
c File: j12048_4.smnaivebi10.wcnf
c timeout
c final solution cost: 134
c CPU time: 70.107135
s UNKNOWN

c File: j12048_4.smbi10.wcnf
c timeout
c final solution cost: 132
c CPU time: 61.008013
s UNKNOWN


rcpsp/heur_output_bi_constraints/Log=10/heurj120.txt
encoding rcpsp/j120.sm/j12048_5.sm nv: 2285970 nc: 4911554 enctime: 65.05
encoding rcpsp/j120.sm/j12048_5.sm nv: 443942 nc: 949498 enctime: 6.66
c File: j12048_5.smnaivebi10.wcnf
c timeout
c final solution cost: 112
c CPU time: 70.057933
s UNKNOWN

c File: j12048_5.smbi10.wcnf
c timeout
c final solution cost: 110
c CPU time: 60.835897
s UNKNOWN


rcpsp/heur_output_bi_constraints/Log=10/heurj120.txt
encoding rcpsp/j120.sm/j12048_6.sm nv: 2385580 nc: 5073027 enctime: 63.41
encoding rcpsp/j120.sm/j12048_6.sm nv: 430780 nc: 911787 enctime: 6.26
c File: j12048_6.smnaivebi10.wcnf
c timeout
c final solution cost: 103
c CPU time: 69.199958
s UNKNOWN

c File: j12048_6.smbi10.wcnf
c timeout
c final solution cost: 105
c CPU time: 60.767338
s UNKNOWN


rcpsp/heur_output_bi_constraints/Log=10/heurj120.txt
encoding rcpsp/j120.sm/j12048_7.sm nv: 2226709 nc: 4734659 enctime: 59.10
encoding rcpsp/j120.sm/j12048_7.sm nv: 470968 nc: 997562 enctime: 6.78
c File: j12048_7.smnaivebi10.wcnf
c timeout
c final solution cost: 104
c CPU time: 68.760383
s UNKNOWN

c File: j12048_7.smbi10.wcnf
c timeout
c final solution cost: 103
c CPU time: 60.862356
s UNKNOWN


rcpsp/heur_output_bi_constraints/Log=10/heurj120.txt
encoding rcpsp/j120.sm/j12048_8.sm nv: 1861646 nc: 3989210 enctime: 50.27
encoding rcpsp/j120.sm/j12048_8.sm nv: 419020 nc: 894288 enctime: 5.92
c File: j12048_8.smnaivebi10.wcnf
c timeout
c final solution cost: 110
c CPU time: 67.754777
s UNKNOWN

c File: j12048_8.smbi10.wcnf
c timeout
c final solution cost: 112
c CPU time: 60.808985
s UNKNOWN


rcpsp/heur_output_bi_constraints/Log=10/heurj120.txt
encoding rcpsp/j120.sm/j12048_9.sm nv: 2104362 nc: 4519292 enctime: 56.75
encoding rcpsp/j120.sm/j12048_9.sm nv: 431664 nc: 923044 enctime: 6.14
c File: j12048_9.smnaivebi10.wcnf
c timeout
c final solution cost: 330
c CPU time: 69.602134
s UNKNOWN

c File: j12048_9.smbi10.wcnf
c timeout
c final solution cost: 115
c CPU time: 60.800144
s UNKNOWN


rcpsp/heur_output_bi_constraints/Log=10/heurj120.txt
encoding rcpsp/j120.sm/j1204_8.sm nv: 1018578 nc: 2308769 enctime: 35.17
encoding rcpsp/j120.sm/j1204_8.sm nv: 145728 nc: 326169 enctime: 2.35
c File: j1204_8.smnaivebi10.wcnf
c optimal
c final solution cost: 90
c CPU time: 6.696745
s OPTIMUM FOUND

c File: j1204_8.smbi10.wcnf
c optimal
c final solution cost: 90
c CPU time: 0.360229
s OPTIMUM FOUND


rcpsp/heur_output_bi_constraints/Log=10/heurj120.txt
encoding rcpsp/j120.sm/j12049_10.sm nv: 2352288 nc: 4986059 enctime: 54.94
encoding rcpsp/j120.sm/j12049_10.sm nv: 436016 nc: 920257 enctime: 5.62
c File: j12049_10.smnaivebi10.wcnf
c timeout
c final solution cost: 92
c CPU time: 68.411387
s UNKNOWN

c File: j12049_10.smbi10.wcnf
c timeout
c final solution cost: 93
c CPU time: 60.722654
s UNKNOWN


rcpsp/heur_output_bi_constraints/Log=10/heurj120.txt
encoding rcpsp/j120.sm/j12049_1.sm nv: 2514876 nc: 5267106 enctime: 54.97
encoding rcpsp/j120.sm/j12049_1.sm nv: 489804 nc: 1022130 enctime: 6.12
c File: j12049_1.smnaivebi10.wcnf
c optimal
c final solution cost: 90
c CPU time: 25.729882
s OPTIMUM FOUND

c File: j12049_1.smbi10.wcnf
c optimal
c final solution cost: 90
c CPU time: 5.882909
s OPTIMUM FOUND


rcpsp/heur_output_bi_constraints/Log=10/heurj120.txt
encoding rcpsp/j120.sm/j12049_2.sm nv: 2264465 nc: 4853649 enctime: 57.76
encoding rcpsp/j120.sm/j12049_2.sm nv: 450225 nc: 960785 enctime: 6.08
c File: j12049_2.smnaivebi10.wcnf
c timeout
c final solution cost: 106
c CPU time: 69.224682
s UNKNOWN

c File: j12049_2.smbi10.wcnf
c timeout
c final solution cost: 107
c CPU time: 60.800010
s UNKNOWN


rcpsp/heur_output_bi_constraints/Log=10/heurj120.txt
encoding rcpsp/j120.sm/j12049_3.sm nv: 2718848 nc: 5782603 enctime: 65.40
encoding rcpsp/j120.sm/j12049_3.sm nv: 494336 nc: 1046731 enctime: 6.55
c File: j12049_3.smnaivebi10.wcnf
c timeout
c final solution cost: 95
c CPU time: 69.982540
s UNKNOWN

c File: j12049_3.smbi10.wcnf
c timeout
c final solution cost: 96
c CPU time: 60.817160
s UNKNOWN


rcpsp/heur_output_bi_constraints/Log=10/heurj120.txt
encoding rcpsp/j120.sm/j12049_4.sm nv: 2658805 nc: 5589181 enctime: 60.13
encoding rcpsp/j120.sm/j12049_4.sm nv: 438310 nc: 917281 enctime: 5.69
c File: j12049_4.smnaivebi10.wcnf
c timeout
c final solution cost: 91
c CPU time: 69.079884
s UNKNOWN

c File: j12049_4.smbi10.wcnf
c timeout
c final solution cost: 91
c CPU time: 60.692014
s UNKNOWN


rcpsp/heur_output_bi_constraints/Log=10/heurj120.txt
encoding rcpsp/j120.sm/j12049_5.sm nv: 2056752 nc: 4300859 enctime: 44.60
encoding rcpsp/j120.sm/j12049_5.sm nv: 361422 nc: 752314 enctime: 3.51
c File: j12049_5.smnaivebi10.wcnf
c optimal
c final solution cost: 86
c CPU time: 27.354872
s OPTIMUM FOUND

c File: j12049_5.smbi10.wcnf
c optimal
c final solution cost: 86
c CPU time: 10.186082
s OPTIMUM FOUND


rcpsp/heur_output_bi_constraints/Log=10/heurj120.txt
encoding rcpsp/j120.sm/j12049_6.sm nv: 2370306 nc: 5053496 enctime: 57.43
encoding rcpsp/j120.sm/j12049_6.sm nv: 443772 nc: 941697 enctime: 5.91
c File: j12049_6.smnaivebi10.wcnf
c optimal
c final solution cost: 108
c CPU time: 30.376756
s OPTIMUM FOUND

c File: j12049_6.smbi10.wcnf
c optimal
c final solution cost: 108
c CPU time: 6.088872
s OPTIMUM FOUND


rcpsp/heur_output_bi_constraints/Log=10/heurj120.txt
encoding rcpsp/j120.sm/j12049_7.sm nv: 2522595 nc: 5320123 enctime: 57.63
encoding rcpsp/j120.sm/j12049_7.sm nv: 441943 nc: 927931 enctime: 5.60
c File: j12049_7.smnaivebi10.wcnf
c timeout
c final solution cost: 94
c CPU time: 68.735236
s UNKNOWN

c File: j12049_7.smbi10.wcnf
c timeout
c final solution cost: 95
c CPU time: 60.712883
s UNKNOWN


rcpsp/heur_output_bi_constraints/Log=10/heurj120.txt
encoding rcpsp/j120.sm/j12049_8.sm nv: 2238418 nc: 4808153 enctime: 58.13
encoding rcpsp/j120.sm/j12049_8.sm nv: 420927 nc: 899684 enctime: 5.68
c File: j12049_8.smnaivebi10.wcnf
c timeout
c final solution cost: 112
c CPU time: 69.098981
s UNKNOWN

c File: j12049_8.smbi10.wcnf
c timeout
c final solution cost: 109
c CPU time: 60.728924
s UNKNOWN


rcpsp/heur_output_bi_constraints/Log=10/heurj120.txt
encoding rcpsp/j120.sm/j12049_9.sm nv: 2657220 nc: 5615368 enctime: 62.20
encoding rcpsp/j120.sm/j12049_9.sm nv: 444192 nc: 934306 enctime: 5.86
c File: j12049_9.smnaivebi10.wcnf
c optimal
c final solution cost: 97
c CPU time: 25.148554
s OPTIMUM FOUND

c File: j12049_9.smbi10.wcnf
c optimal
c final solution cost: 97
c CPU time: 3.785527
s OPTIMUM FOUND


rcpsp/heur_output_bi_constraints/Log=10/heurj120.txt
encoding rcpsp/j120.sm/j1204_9.sm nv: 899580 nc: 2039639 enctime: 29.41
encoding rcpsp/j120.sm/j1204_9.sm nv: 109980 nc: 245399 enctime: 1.86
c File: j1204_9.smnaivebi10.wcnf
c optimal
c final solution cost: 72
c CPU time: 6.647324
s OPTIMUM FOUND

c File: j1204_9.smbi10.wcnf
c optimal
c final solution cost: 72
c CPU time: 0.308783
s OPTIMUM FOUND


